(declare-fun bvlambda_10_ ()Bool         )
(declare-fun a91 () (Array (_ BitVec 1) (_ BitVec 4)))
(assert
(let (($e3 (_ bv2 4)))
(let (($e32 (_ bv0 4)))
(let (($e257 (store a91 true        $e3)))
(let (($e258 (store $e257 bvlambda_10_ $e32)))
(
                 extract(select $e258 true)
                                                                                                                                                                                                                                                                                                                                                                                                                                                                                                                                                                                                                                                                                                                                                                                                                                                                                                             )))                                                                                                                                                                                                      )                            )  )
